DIMENSION :6
NODE_COORD_SECTION
1 69.82545272653022 69.57393486199436
2 28.31260918196682 93.79294267303305
3 29.949207130412475 40.39204164928165
4 74.6748028487919 95.05260612203173
5 -39.105826926490515 89.60759470018033
6 -69.60261566385475 -98.93422781516172
EOF
